sat
(= |goto_symex::&92;guard#1| false)
(= |goto_symex::&92;guard#2| true)
(= |goto_symex::&92;guard#3| false)
(= |goto_symex::&92;guard#4| false)
(= |goto_symex::&92;guard#5| false)
(= |goto_symex::&92;guard#6| false)
(= |__VERIFIER_atomic_assert::$tmp::::tmp_if_expr$1!1@1#5| true)
(= |memory_model::choice_rf_1_29_0_8_T_0| false)
(= |memory_model::choice_rf_1_8_0_9_F_1| true)
(= |memory_model::choice_rf_1_11_0_9_F_2| false)
(= |memory_model::choice_rf_1_11_1_9_F_3| false)
(= |memory_model::choice_rf_1_16_0_9_F_4| false)
(= |memory_model::choice_rf_1_16_1_9_F_5| true)
(= |memory_model::choice_rf_1_16_1_12_F_6| false)
(= |memory_model::choice_rf_1_20_0_9_F_7| false)
(= |memory_model::choice_rf_1_20_1_9_F_8| false)
(= |memory_model::choice_rf_1_20_1_12_F_9| false)
(= |memory_model::choice_rf_1_20_1_17_F_10| true)
(= |memory_model::choice_rf_1_26_0_9_F_11| false)
(= |memory_model::choice_rf_1_26_1_9_F_12| false)
(= |memory_model::choice_rf_1_26_1_12_F_13| false)
(= |memory_model::choice_rf_1_26_1_17_F_14| false)
(= |memory_model::choice_rf_1_26_1_21_F_15| true)
(= |memory_model::choice_rf_1_18_0_11_F_16| true)
(= |memory_model::choice_rf_1_23_0_11_F_17| false)
(= |memory_model::choice_rf_1_23_1_19_F_18| true)
(= |memory_model::choice_rf_1_10_0_12_F_19| true)
(= |memory_model::choice_rf_1_13_0_12_F_20| true)
(= |memory_model::choice_rf_1_14_0_12_F_21| true)
(= |memory_model::choice_rf_1_22_0_14_F_22| false)
(= |memory_model::choice_rf_1_22_1_4_F_23| true)
(= |memory_model::choice_rf_1_28_0_14_F_24| false)
(= |memory_model::choice_rf_1_28_1_4_F_25| false)
(= |memory_model::choice_rf_1_28_1_25_F_26| true)
(= |memory_model::choice_rf_1_0_0_10_F_27| true)
(= |memory_model::choice_rf_1_6_0_10_F_28| false)
(= |memory_model::choice_rf_1_6_1_1_F_29| true)
(= |memory_model::choice_rf_1_2_0_13_F_30| true)
(= |memory_model::choice_rf_1_3_0_13_F_31| false)
(= |memory_model::choice_ws-ext_0_8_1_30_T_32| true)
(= |memory_model::choice_ws-ext_0_9_1_9_F_33| true)
(= |memory_model::choice_ws-ext_0_9_1_12_F_34| true)
(= |memory_model::choice_ws-ext_0_9_1_17_F_35| true)
(= |memory_model::choice_ws-ext_0_9_1_21_F_36| true)
(= |memory_model::choice_ws-ext_0_9_1_27_F_37| true)
(= |memory_model::choice_ws-ext_0_11_1_19_F_38| true)
(= |memory_model::choice_ws-ext_0_11_1_24_F_39| true)
(= |memory_model::choice_ws-ext_0_12_1_15_F_40| true)
(= |memory_model::choice_ws-ext_0_14_1_4_F_41| true)
(= |memory_model::choice_ws-ext_0_14_1_25_F_42| true)
(= |memory_model::choice_ws-ext_0_10_1_1_F_43| true)
(= |memory_model::choice_ws-ext_0_10_1_7_F_44| true)
(= |memory_model::choice_ws-ext_0_13_1_5_F_45| true)
(= |m2#3| #b00000000000000000000000000000000)
(= |m2#6| #b00000000000000000000000000000001)
(= |m#3| #b00000000000000000000000000000000)
(= |m#6| #b10000000000000000000000000000000)
(= |m#9| #b00000000000000000000000000000001)
(= |m#12| #b00000000000000000000000000000000)
(= |m#15| #b00000000000000000000000000000001)
(= |m2#2| #b00000000000000000000000000000000)
(= |state#2| #b00000000000000000000000000000000)
(= |state#3| #b10000000000000000000000000000000)
(= |m2#5| #b00000000000000000000000000000001)
(= |nondet_symex::nondet0| #b10000000000000000000000000000000)
(= |m#2| #b00000000000000000000000000000000)
(= |next_alloc_idx#2| #b00000000000000000000000000000001)
(= |m#5| #b10000000000000000000000000000000)
(= |next_alloc_idx#3| #b00000000000000000000000000000001)
(= |next_alloc_idx#4| #b00000000000000000000000000000001)
(= |m#8| #b00000000000000000000000000000001)
(= |m#11| #b00000000000000000000000000000000)
(= |top#3| #b00000000000000000000000000000000)
(= |m#14| #b00000000000000000000000000000001)
(= |top#5| #b00000000000000000000000000000001)
(= |__CPROVER_threads_exited#1$wclk$8| #b001011)
(= |__CPROVER_threads_exited#2$rclk$8| #b111110)
(= |m#1$wclk$8| #b001100)
(= |m#2$rclk$8| #b011100)
(= |m#5$rclk$8| #b011110)
(= |m#8$rclk$8| #b101101)
(= |m#11$rclk$8| #b110110)
(= |m#14$rclk$8| #b111100)
(= |memory#1$wclk$8| #b001110)
(= |memory#2$rclk$8| #b110010)
(= |memory#4$rclk$8| #b111001)
(= |next_alloc_idx#1$wclk$8| #b001111)
(= |next_alloc_idx#2$rclk$8| #b011101)
(= |next_alloc_idx#3$rclk$8| #b011111)
(= |next_alloc_idx#4$rclk$8| #b100110)
(= |top#1$wclk$8| #b010001)
(= |top#3$rclk$8| #b110111)
(= |top#5$rclk$8| #b111101)
(= |m2#1$wclk$8| #b001101)
(= |m2#2$rclk$8| #b010110)
(= |m2#5$rclk$8| #b011011)
(= |state#1$wclk$8| #b010000)
(= |state#2$rclk$8| #b010111)
(= |state#3$rclk$8| #b011000)
(= |__CPROVER_threads_exited#3$wclk$8| #b111111)
(= |m#4$wclk$8| #b011100)
(= |m#7$wclk$8| #b011110)
(= |m#10$wclk$8| #b101101)
(= |m#13$wclk$8| #b110110)
(= |m#16$wclk$8| #b111100)
(= |memory#3$wclk$8| #b110011)
(= |memory#5$wclk$8| #b111010)
(= |next_alloc_idx#5$wclk$8| #b100111)
(= |top#2$wclk$8| #b011001)
(= |top#4$wclk$8| #b111011)
(= |m2#4$wclk$8| #b010110)
(= |m2#7$wclk$8| #b011011)
(= |state#4$wclk$8| #b011010)
(= t1$18$spwnclk$8 #b010101)
(= |__CPROVER_dead_object#1$wclk$8| #b000000)
(= |__CPROVER_deallocated#1$wclk$8| #b000100)
(= |__CPROVER_malloc_is_new_array#1$wclk$8| #b000101)
(= |__CPROVER_malloc_object#1$wclk$8| #b000110)
(= |__CPROVER_malloc_size#1$wclk$8| #b000111)
(= |__CPROVER_memory_leak#1$wclk$8| #b001000)
(= |__CPROVER_next_thread_id#1$wclk$8| #b001001)
(= |__CPROVER_pipe_count#1$wclk$8| #b001010)
(= |main::1::t!0@1#1$wclk$8| #b010010)
(= |__CPROVER_next_thread_id#2$wclk$8| #b010011)
(= |main::1::t!0@1#2$wclk$8| #b010100)
(= array_of.0 @fun_1286)
(= array.1 @fun_1284)
(= |memory#2| @fun_1284)
(= |memory#4| @fun_1290)
(= |__CPROVER_threads_exited#2| @fun_1288)
(function @fun_1286
 (type (Array (_ BitVec 32) (_ BitVec 1)))
 (default #b0))
(function @fun_1284
 (type (Array (_ BitVec 32) (_ BitVec 32)))
 (default #b00000000000000000000000000000000))
(function @fun_1290
 (type (Array (_ BitVec 32) (_ BitVec 32)))
 (= (@fun_1290 #b00000000000000000000000000000001) #b10000000000000000000000000000000)
 (default #b00000000000000000000000000000000))
(function @fun_1288
 (type (Array (_ BitVec 32) (_ BitVec 1)))
 (default #b1))

real	0m0.011s
user	0m0.010s
sys	0m0.000s
State: AC Run_time: 0.01274418830871582